10
0, 1061, 561, 673, 305, 422, 490, 729, 438, 933
1061, 0, 531, 646, 781, 639, 602, 748, 678, 274
561, 531, 0, 260, 260, 168, 72, 646, 332, 507
673, 646, 260, 0, 387, 395, 272, 906, 579, 714
305, 781, 260, 387, 0, 161, 187, 661, 299, 702
422, 639, 168, 395, 161, 0, 124, 539, 187, 541
490, 602, 72, 272, 187, 124, 0, 646, 307, 560
729, 748, 646, 906, 661, 539, 646, 0, 362, 483
438, 678, 332, 579, 299, 187, 307, 362, 0, 503
933, 274, 507, 714, 702, 541, 560, 483, 503, 0
